data/lp_files/q3/54_2.lp
\ Model foo
\ LP format - for model browsing. Use MPS format to capture full model detail.
Minimize
  z
Subject To
 allocateEach[1]: x[1,1] + x[2,1] + x[3,1] = 1
 allocateEach[2]: x[1,2] + x[2,2] + x[3,2] = 1
 allocateEach[3]: x[1,3] + x[2,3] + x[3,3] = 1
 allocateEach[4]: x[1,4] + x[2,4] + x[3,4] = 1
 allocateEach[5]: x[1,5] + x[2,5] + x[3,5] = 1
 allocateEach[6]: x[1,6] + x[2,6] + x[3,6] = 1
 allocateEach[7]: x[1,7] + x[2,7] + x[3,7] = 1
 allocateEach[8]: x[1,8] + x[2,8] + x[3,8] = 1
 allocateEach[9]: x[1,9] + x[2,9] + x[3,9] = 1
 allocateEach[10]: x[1,10] + x[2,10] + x[3,10] = 1
 allocateEach[11]: x[1,11] + x[2,11] + x[3,11] = 1
 allocateEach[12]: x[1,12] + x[2,12] + x[3,12] = 1
 allocateEach[13]: x[1,13] + x[2,13] + x[3,13] = 1
 allocateEach[14]: x[1,14] + x[2,14] + x[3,14] = 1
 allocateAllCash: cashProportion[1] + cashProportion[2] + cashProportion[3]
   = 1
 findWorstP[1,2]: z + 0.0230559953273183 cashProportion[1]
   - 0.0230559953273183 cashProportion[2] + 0.00379655389723174 x[1,1]
   + 0.0327548840283435 x[1,2] + 0.1441768241134969 x[1,3]
   + 0.150939916076177 x[1,4] + 0.0766842404586606 x[1,5]
   + 0.0436526844863893 x[1,6] + 0.0454817934490232 x[1,7]
   + 0.0116509629720715 x[1,8] + 0.0626815659632026 x[1,9]
   + 0.1159409151693078 x[1,10] + 0.0496933552621467 x[1,11]
   + 0.1482654206182081 x[1,12] + 0.0336156411872301 x[1,13]
   + 0.0576092469911926 x[1,14] - 0.00379655389723174 x[2,1]
   - 0.0327548840283435 x[2,2] - 0.1441768241134969 x[2,3]
   - 0.150939916076177 x[2,4] - 0.0766842404586606 x[2,5]
   - 0.0436526844863893 x[2,6] - 0.0454817934490232 x[2,7]
   - 0.0116509629720715 x[2,8] - 0.0626815659632026 x[2,9]
   - 0.1159409151693078 x[2,10] - 0.0496933552621467 x[2,11]
   - 0.1482654206182081 x[2,12] - 0.0336156411872301 x[2,13]
   - 0.0576092469911926 x[2,14] >= 0
 findWorstP[1,3]: z + 0.0230559953273183 cashProportion[1]
   - 0.0230559953273183 cashProportion[3] + 0.00379655389723174 x[1,1]
   + 0.0327548840283435 x[1,2] + 0.1441768241134969 x[1,3]
   + 0.150939916076177 x[1,4] + 0.0766842404586606 x[1,5]
   + 0.0436526844863893 x[1,6] + 0.0454817934490232 x[1,7]
   + 0.0116509629720715 x[1,8] + 0.0626815659632026 x[1,9]
   + 0.1159409151693078 x[1,10] + 0.0496933552621467 x[1,11]
   + 0.1482654206182081 x[1,12] + 0.0336156411872301 x[1,13]
   + 0.0576092469911926 x[1,14] - 0.00379655389723174 x[3,1]
   - 0.0327548840283435 x[3,2] - 0.1441768241134969 x[3,3]
   - 0.150939916076177 x[3,4] - 0.0766842404586606 x[3,5]
   - 0.0436526844863893 x[3,6] - 0.0454817934490232 x[3,7]
   - 0.0116509629720715 x[3,8] - 0.0626815659632026 x[3,9]
   - 0.1159409151693078 x[3,10] - 0.0496933552621467 x[3,11]
   - 0.1482654206182081 x[3,12] - 0.0336156411872301 x[3,13]
   - 0.0576092469911926 x[3,14] >= 0
 findWorstP[2,1]: z - 0.0195763674092635 cashProportion[1]
   + 0.0195763674092635 cashProportion[2] - 0.0320530389047675 x[1,1]
   - 0.079636662620884 x[1,2] - 0.0514597444631507 x[1,3]
   - 0.0883155188389909 x[1,4] - 0.0210119676859429 x[1,5]
   - 0.0618221682784542 x[1,6] - 0.0256841940409538 x[1,7]
   - 0.1207731360035498 x[1,8] - 0.0893726426790911 x[1,9]
   - 0.0846351617660493 x[1,10] - 0.0577894365921459 x[1,11]
   - 0.1272594390718191 x[1,12] - 0.031870326142281 x[1,13]
   - 0.1087401955026558 x[1,14] + 0.0320530389047675 x[2,1]
   + 0.079636662620884 x[2,2] + 0.0514597444631507 x[2,3]
   + 0.0883155188389909 x[2,4] + 0.0210119676859429 x[2,5]
   + 0.0618221682784542 x[2,6] + 0.0256841940409538 x[2,7]
   + 0.1207731360035498 x[2,8] + 0.0893726426790911 x[2,9]
   + 0.0846351617660493 x[2,10] + 0.0577894365921459 x[2,11]
   + 0.1272594390718191 x[2,12] + 0.031870326142281 x[2,13]
   + 0.1087401955026558 x[2,14] >= 0
 findWorstP[2,3]: z + 0.0195763674092635 cashProportion[2]
   - 0.0195763674092635 cashProportion[3] + 0.0320530389047675 x[2,1]
   + 0.079636662620884 x[2,2] + 0.0514597444631507 x[2,3]
   + 0.0883155188389909 x[2,4] + 0.0210119676859429 x[2,5]
   + 0.0618221682784542 x[2,6] + 0.0256841940409538 x[2,7]
   + 0.1207731360035498 x[2,8] + 0.0893726426790911 x[2,9]
   + 0.0846351617660493 x[2,10] + 0.0577894365921459 x[2,11]
   + 0.1272594390718191 x[2,12] + 0.031870326142281 x[2,13]
   + 0.1087401955026558 x[2,14] - 0.0320530389047675 x[3,1]
   - 0.079636662620884 x[3,2] - 0.0514597444631507 x[3,3]
   - 0.0883155188389909 x[3,4] - 0.0210119676859429 x[3,5]
   - 0.0618221682784542 x[3,6] - 0.0256841940409538 x[3,7]
   - 0.1207731360035498 x[3,8] - 0.0893726426790911 x[3,9]
   - 0.0846351617660493 x[3,10] - 0.0577894365921459 x[3,11]
   - 0.1272594390718191 x[3,12] - 0.031870326142281 x[3,13]
   - 0.1087401955026558 x[3,14] >= 0
 findWorstP[3,1]: z - 0.0241756116429746 cashProportion[1]
   + 0.0241756116429746 cashProportion[3] - 0.1521451826064533 x[1,1]
   - 0.0160364890565065 x[1,2] - 0.0300583438094317 x[1,3]
   - 0.1330464494085034 x[1,4] - 0.0275279631241337 x[1,5]
   - 0.1331915030783612 x[1,6] - 0.0479321793508042 x[1,7]
   - 0.1016020371982078 x[1,8] - 0.0391806079360474 x[1,9]
   - 0.040905134899913 x[1,10] - 0.0153434548560745 x[1,11]
   - 0.0925442413693066 x[1,12] - 0.1325468201012152 x[1,13]
   - 0.0137639815620669 x[1,14] + 0.1521451826064533 x[3,1]
   + 0.0160364890565065 x[3,2] + 0.0300583438094317 x[3,3]
   + 0.1330464494085034 x[3,4] + 0.0275279631241337 x[3,5]
   + 0.1331915030783612 x[3,6] + 0.0479321793508042 x[3,7]
   + 0.1016020371982078 x[3,8] + 0.0391806079360474 x[3,9]
   + 0.040905134899913 x[3,10] + 0.0153434548560745 x[3,11]
   + 0.0925442413693066 x[3,12] + 0.1325468201012152 x[3,13]
   + 0.0137639815620669 x[3,14] >= 0
 findWorstP[3,2]: z - 0.0241756116429746 cashProportion[2]
   + 0.0241756116429746 cashProportion[3] - 0.1521451826064533 x[2,1]
   - 0.0160364890565065 x[2,2] - 0.0300583438094317 x[2,3]
   - 0.1330464494085034 x[2,4] - 0.0275279631241337 x[2,5]
   - 0.1331915030783612 x[2,6] - 0.0479321793508042 x[2,7]
   - 0.1016020371982078 x[2,8] - 0.0391806079360474 x[2,9]
   - 0.040905134899913 x[2,10] - 0.0153434548560745 x[2,11]
   - 0.0925442413693066 x[2,12] - 0.1325468201012152 x[2,13]
   - 0.0137639815620669 x[2,14] + 0.1521451826064533 x[3,1]
   + 0.0160364890565065 x[3,2] + 0.0300583438094317 x[3,3]
   + 0.1330464494085034 x[3,4] + 0.0275279631241337 x[3,5]
   + 0.1331915030783612 x[3,6] + 0.0479321793508042 x[3,7]
   + 0.1016020371982078 x[3,8] + 0.0391806079360474 x[3,9]
   + 0.040905134899913 x[3,10] + 0.0153434548560745 x[3,11]
   + 0.0925442413693066 x[3,12] + 0.1325468201012152 x[3,13]
   + 0.0137639815620669 x[3,14] >= 0
Bounds
 z <= 1
 -infinity <= cashProportion[1] <= 1
 -infinity <= cashProportion[2] <= 1
 -infinity <= cashProportion[3] <= 1
Binaries
 x[1,1] x[1,2] x[1,3] x[1,4] x[1,5] x[1,6] x[1,7] x[1,8] x[1,9] x[1,10]
 x[1,11] x[1,12] x[1,13] x[1,14] x[2,1] x[2,2] x[2,3] x[2,4] x[2,5] x[2,6]
 x[2,7] x[2,8] x[2,9] x[2,10] x[2,11] x[2,12] x[2,13] x[2,14] x[3,1] x[3,2]
 x[3,3] x[3,4] x[3,5] x[3,6] x[3,7] x[3,8] x[3,9] x[3,10] x[3,11] x[3,12]
 x[3,13] x[3,14]
End
