data/mps_files/q3/54_2.mps
NAME foo
ROWS
 N  OBJ
 E  allocateEach[1]
 E  allocateEach[2]
 E  allocateEach[3]
 E  allocateEach[4]
 E  allocateEach[5]
 E  allocateEach[6]
 E  allocateEach[7]
 E  allocateEach[8]
 E  allocateEach[9]
 E  allocateEach[10]
 E  allocateEach[11]
 E  allocateEach[12]
 E  allocateEach[13]
 E  allocateEach[14]
 E  allocateAllCash
 G  findWorstP[1,2]
 G  findWorstP[1,3]
 G  findWorstP[2,1]
 G  findWorstP[2,3]
 G  findWorstP[3,1]
 G  findWorstP[3,2]
COLUMNS
    z         OBJ       1
    z         findWorstP[1,2]  1
    z         findWorstP[1,3]  1
    z         findWorstP[2,1]  1
    z         findWorstP[2,3]  1
    z         findWorstP[3,1]  1
    z         findWorstP[3,2]  1
    cashProportion[1]  allocateAllCash  1
    cashProportion[1]  findWorstP[1,2]  2.3055995327318283e-02
    cashProportion[1]  findWorstP[1,3]  2.3055995327318283e-02
    cashProportion[1]  findWorstP[2,1]  -1.9576367409263537e-02
    cashProportion[1]  findWorstP[3,1]  -2.4175611642974569e-02
    cashProportion[2]  allocateAllCash  1
    cashProportion[2]  findWorstP[1,2]  -2.3055995327318283e-02
    cashProportion[2]  findWorstP[2,1]  1.9576367409263537e-02
    cashProportion[2]  findWorstP[2,3]  1.9576367409263537e-02
    cashProportion[2]  findWorstP[3,2]  -2.4175611642974569e-02
    cashProportion[3]  allocateAllCash  1
    cashProportion[3]  findWorstP[1,3]  -2.3055995327318283e-02
    cashProportion[3]  findWorstP[2,3]  -1.9576367409263537e-02
    cashProportion[3]  findWorstP[3,1]  2.4175611642974569e-02
    cashProportion[3]  findWorstP[3,2]  2.4175611642974569e-02
    MARKER    'MARKER'                 'INTORG'
    x[1,1]    allocateEach[1]  1
    x[1,1]    findWorstP[1,2]  3.7965538972317431e-03
    x[1,1]    findWorstP[1,3]  3.7965538972317431e-03
    x[1,1]    findWorstP[2,1]  -3.2053038904767496e-02
    x[1,1]    findWorstP[3,1]  -1.5214518260645327e-01
    x[1,2]    allocateEach[2]  1
    x[1,2]    findWorstP[1,2]  0.0327548840283435
    x[1,2]    findWorstP[1,3]  0.0327548840283435
    x[1,2]    findWorstP[2,1]  -7.9636662620884049e-02
    x[1,2]    findWorstP[3,1]  -1.6036489056506464e-02
    x[1,3]    allocateEach[3]  1
    x[1,3]    findWorstP[1,2]  1.4417682411349694e-01
    x[1,3]    findWorstP[1,3]  1.4417682411349694e-01
    x[1,3]    findWorstP[2,1]  -5.1459744463150735e-02
    x[1,3]    findWorstP[3,1]  -3.0058343809431710e-02
    x[1,4]    allocateEach[4]  1
    x[1,4]    findWorstP[1,2]  0.150939916076177
    x[1,4]    findWorstP[1,3]  0.150939916076177
    x[1,4]    findWorstP[2,1]  -8.8315518838990886e-02
    x[1,4]    findWorstP[3,1]  -1.3304644940850335e-01
    x[1,5]    allocateEach[5]  1
    x[1,5]    findWorstP[1,2]  0.0766842404586606
    x[1,5]    findWorstP[1,3]  0.0766842404586606
    x[1,5]    findWorstP[2,1]  -2.1011967685942858e-02
    x[1,5]    findWorstP[3,1]  -2.7527963124133706e-02
    x[1,6]    allocateEach[6]  1
    x[1,6]    findWorstP[1,2]  4.3652684486389266e-02
    x[1,6]    findWorstP[1,3]  4.3652684486389266e-02
    x[1,6]    findWorstP[2,1]  -6.1822168278454236e-02
    x[1,6]    findWorstP[3,1]  -1.3319150307836122e-01
    x[1,7]    allocateEach[7]  1
    x[1,7]    findWorstP[1,2]  4.5481793449023186e-02
    x[1,7]    findWorstP[1,3]  4.5481793449023186e-02
    x[1,7]    findWorstP[2,1]  -2.5684194040953755e-02
    x[1,7]    findWorstP[3,1]  -4.7932179350804238e-02
    x[1,8]    allocateEach[8]  1
    x[1,8]    findWorstP[1,2]  1.1650962972071504e-02
    x[1,8]    findWorstP[1,3]  1.1650962972071504e-02
    x[1,8]    findWorstP[2,1]  -1.2077313600354982e-01
    x[1,8]    findWorstP[3,1]  -1.0160203719820778e-01
    x[1,9]    allocateEach[9]  1
    x[1,9]    findWorstP[1,2]  6.2681565963202623e-02
    x[1,9]    findWorstP[1,3]  6.2681565963202623e-02
    x[1,9]    findWorstP[2,1]  -0.0893726426790911
    x[1,9]    findWorstP[3,1]  -3.9180607936047447e-02
    x[1,10]   allocateEach[10]  1
    x[1,10]   findWorstP[1,2]  1.1594091516930784e-01
    x[1,10]   findWorstP[1,3]  1.1594091516930784e-01
    x[1,10]   findWorstP[2,1]  -8.4635161766049335e-02
    x[1,10]   findWorstP[3,1]  -4.0905134899912973e-02
    x[1,11]   allocateEach[11]  1
    x[1,11]   findWorstP[1,2]  4.9693355262146660e-02
    x[1,11]   findWorstP[1,3]  4.9693355262146660e-02
    x[1,11]   findWorstP[2,1]  -5.7789436592145950e-02
    x[1,11]   findWorstP[3,1]  -1.5343454856074527e-02
    x[1,12]   allocateEach[12]  1
    x[1,12]   findWorstP[1,2]  1.4826542061820808e-01
    x[1,12]   findWorstP[1,3]  1.4826542061820808e-01
    x[1,12]   findWorstP[2,1]  -1.2725943907181914e-01
    x[1,12]   findWorstP[3,1]  -9.2544241369306640e-02
    x[1,13]   allocateEach[13]  1
    x[1,13]   findWorstP[1,2]  3.3615641187230053e-02
    x[1,13]   findWorstP[1,3]  3.3615641187230053e-02
    x[1,13]   findWorstP[2,1]  -3.1870326142281032e-02
    x[1,13]   findWorstP[3,1]  -1.3254682010121521e-01
    x[1,14]   allocateEach[14]  1
    x[1,14]   findWorstP[1,2]  5.7609246991192610e-02
    x[1,14]   findWorstP[1,3]  5.7609246991192610e-02
    x[1,14]   findWorstP[2,1]  -1.0874019550265585e-01
    x[1,14]   findWorstP[3,1]  -1.3763981562066853e-02
    x[2,1]    allocateEach[1]  1
    x[2,1]    findWorstP[1,2]  -3.7965538972317431e-03
    x[2,1]    findWorstP[2,1]  3.2053038904767496e-02
    x[2,1]    findWorstP[2,3]  3.2053038904767496e-02
    x[2,1]    findWorstP[3,2]  -1.5214518260645327e-01
    x[2,2]    allocateEach[2]  1
    x[2,2]    findWorstP[1,2]  -0.0327548840283435
    x[2,2]    findWorstP[2,1]  7.9636662620884049e-02
    x[2,2]    findWorstP[2,3]  7.9636662620884049e-02
    x[2,2]    findWorstP[3,2]  -1.6036489056506464e-02
    x[2,3]    allocateEach[3]  1
    x[2,3]    findWorstP[1,2]  -1.4417682411349694e-01
    x[2,3]    findWorstP[2,1]  5.1459744463150735e-02
    x[2,3]    findWorstP[2,3]  5.1459744463150735e-02
    x[2,3]    findWorstP[3,2]  -3.0058343809431710e-02
    x[2,4]    allocateEach[4]  1
    x[2,4]    findWorstP[1,2]  -0.150939916076177
    x[2,4]    findWorstP[2,1]  8.8315518838990886e-02
    x[2,4]    findWorstP[2,3]  8.8315518838990886e-02
    x[2,4]    findWorstP[3,2]  -1.3304644940850335e-01
    x[2,5]    allocateEach[5]  1
    x[2,5]    findWorstP[1,2]  -0.0766842404586606
    x[2,5]    findWorstP[2,1]  2.1011967685942858e-02
    x[2,5]    findWorstP[2,3]  2.1011967685942858e-02
    x[2,5]    findWorstP[3,2]  -2.7527963124133706e-02
    x[2,6]    allocateEach[6]  1
    x[2,6]    findWorstP[1,2]  -4.3652684486389266e-02
    x[2,6]    findWorstP[2,1]  6.1822168278454236e-02
    x[2,6]    findWorstP[2,3]  6.1822168278454236e-02
    x[2,6]    findWorstP[3,2]  -1.3319150307836122e-01
    x[2,7]    allocateEach[7]  1
    x[2,7]    findWorstP[1,2]  -4.5481793449023186e-02
    x[2,7]    findWorstP[2,1]  2.5684194040953755e-02
    x[2,7]    findWorstP[2,3]  2.5684194040953755e-02
    x[2,7]    findWorstP[3,2]  -4.7932179350804238e-02
    x[2,8]    allocateEach[8]  1
    x[2,8]    findWorstP[1,2]  -1.1650962972071504e-02
    x[2,8]    findWorstP[2,1]  1.2077313600354982e-01
    x[2,8]    findWorstP[2,3]  1.2077313600354982e-01
    x[2,8]    findWorstP[3,2]  -1.0160203719820778e-01
    x[2,9]    allocateEach[9]  1
    x[2,9]    findWorstP[1,2]  -6.2681565963202623e-02
    x[2,9]    findWorstP[2,1]  0.0893726426790911
    x[2,9]    findWorstP[2,3]  0.0893726426790911
    x[2,9]    findWorstP[3,2]  -3.9180607936047447e-02
    x[2,10]   allocateEach[10]  1
    x[2,10]   findWorstP[1,2]  -1.1594091516930784e-01
    x[2,10]   findWorstP[2,1]  8.4635161766049335e-02
    x[2,10]   findWorstP[2,3]  8.4635161766049335e-02
    x[2,10]   findWorstP[3,2]  -4.0905134899912973e-02
    x[2,11]   allocateEach[11]  1
    x[2,11]   findWorstP[1,2]  -4.9693355262146660e-02
    x[2,11]   findWorstP[2,1]  5.7789436592145950e-02
    x[2,11]   findWorstP[2,3]  5.7789436592145950e-02
    x[2,11]   findWorstP[3,2]  -1.5343454856074527e-02
    x[2,12]   allocateEach[12]  1
    x[2,12]   findWorstP[1,2]  -1.4826542061820808e-01
    x[2,12]   findWorstP[2,1]  1.2725943907181914e-01
    x[2,12]   findWorstP[2,3]  1.2725943907181914e-01
    x[2,12]   findWorstP[3,2]  -9.2544241369306640e-02
    x[2,13]   allocateEach[13]  1
    x[2,13]   findWorstP[1,2]  -3.3615641187230053e-02
    x[2,13]   findWorstP[2,1]  3.1870326142281032e-02
    x[2,13]   findWorstP[2,3]  3.1870326142281032e-02
    x[2,13]   findWorstP[3,2]  -1.3254682010121521e-01
    x[2,14]   allocateEach[14]  1
    x[2,14]   findWorstP[1,2]  -5.7609246991192610e-02
    x[2,14]   findWorstP[2,1]  1.0874019550265585e-01
    x[2,14]   findWorstP[2,3]  1.0874019550265585e-01
    x[2,14]   findWorstP[3,2]  -1.3763981562066853e-02
    x[3,1]    allocateEach[1]  1
    x[3,1]    findWorstP[1,3]  -3.7965538972317431e-03
    x[3,1]    findWorstP[2,3]  -3.2053038904767496e-02
    x[3,1]    findWorstP[3,1]  1.5214518260645327e-01
    x[3,1]    findWorstP[3,2]  1.5214518260645327e-01
    x[3,2]    allocateEach[2]  1
    x[3,2]    findWorstP[1,3]  -0.0327548840283435
    x[3,2]    findWorstP[2,3]  -7.9636662620884049e-02
    x[3,2]    findWorstP[3,1]  1.6036489056506464e-02
    x[3,2]    findWorstP[3,2]  1.6036489056506464e-02
    x[3,3]    allocateEach[3]  1
    x[3,3]    findWorstP[1,3]  -1.4417682411349694e-01
    x[3,3]    findWorstP[2,3]  -5.1459744463150735e-02
    x[3,3]    findWorstP[3,1]  3.0058343809431710e-02
    x[3,3]    findWorstP[3,2]  3.0058343809431710e-02
    x[3,4]    allocateEach[4]  1
    x[3,4]    findWorstP[1,3]  -0.150939916076177
    x[3,4]    findWorstP[2,3]  -8.8315518838990886e-02
    x[3,4]    findWorstP[3,1]  1.3304644940850335e-01
    x[3,4]    findWorstP[3,2]  1.3304644940850335e-01
    x[3,5]    allocateEach[5]  1
    x[3,5]    findWorstP[1,3]  -0.0766842404586606
    x[3,5]    findWorstP[2,3]  -2.1011967685942858e-02
    x[3,5]    findWorstP[3,1]  2.7527963124133706e-02
    x[3,5]    findWorstP[3,2]  2.7527963124133706e-02
    x[3,6]    allocateEach[6]  1
    x[3,6]    findWorstP[1,3]  -4.3652684486389266e-02
    x[3,6]    findWorstP[2,3]  -6.1822168278454236e-02
    x[3,6]    findWorstP[3,1]  1.3319150307836122e-01
    x[3,6]    findWorstP[3,2]  1.3319150307836122e-01
    x[3,7]    allocateEach[7]  1
    x[3,7]    findWorstP[1,3]  -4.5481793449023186e-02
    x[3,7]    findWorstP[2,3]  -2.5684194040953755e-02
    x[3,7]    findWorstP[3,1]  4.7932179350804238e-02
    x[3,7]    findWorstP[3,2]  4.7932179350804238e-02
    x[3,8]    allocateEach[8]  1
    x[3,8]    findWorstP[1,3]  -1.1650962972071504e-02
    x[3,8]    findWorstP[2,3]  -1.2077313600354982e-01
    x[3,8]    findWorstP[3,1]  1.0160203719820778e-01
    x[3,8]    findWorstP[3,2]  1.0160203719820778e-01
    x[3,9]    allocateEach[9]  1
    x[3,9]    findWorstP[1,3]  -6.2681565963202623e-02
    x[3,9]    findWorstP[2,3]  -0.0893726426790911
    x[3,9]    findWorstP[3,1]  3.9180607936047447e-02
    x[3,9]    findWorstP[3,2]  3.9180607936047447e-02
    x[3,10]   allocateEach[10]  1
    x[3,10]   findWorstP[1,3]  -1.1594091516930784e-01
    x[3,10]   findWorstP[2,3]  -8.4635161766049335e-02
    x[3,10]   findWorstP[3,1]  4.0905134899912973e-02
    x[3,10]   findWorstP[3,2]  4.0905134899912973e-02
    x[3,11]   allocateEach[11]  1
    x[3,11]   findWorstP[1,3]  -4.9693355262146660e-02
    x[3,11]   findWorstP[2,3]  -5.7789436592145950e-02
    x[3,11]   findWorstP[3,1]  1.5343454856074527e-02
    x[3,11]   findWorstP[3,2]  1.5343454856074527e-02
    x[3,12]   allocateEach[12]  1
    x[3,12]   findWorstP[1,3]  -1.4826542061820808e-01
    x[3,12]   findWorstP[2,3]  -1.2725943907181914e-01
    x[3,12]   findWorstP[3,1]  9.2544241369306640e-02
    x[3,12]   findWorstP[3,2]  9.2544241369306640e-02
    x[3,13]   allocateEach[13]  1
    x[3,13]   findWorstP[1,3]  -3.3615641187230053e-02
    x[3,13]   findWorstP[2,3]  -3.1870326142281032e-02
    x[3,13]   findWorstP[3,1]  1.3254682010121521e-01
    x[3,13]   findWorstP[3,2]  1.3254682010121521e-01
    x[3,14]   allocateEach[14]  1
    x[3,14]   findWorstP[1,3]  -5.7609246991192610e-02
    x[3,14]   findWorstP[2,3]  -1.0874019550265585e-01
    x[3,14]   findWorstP[3,1]  1.3763981562066853e-02
    x[3,14]   findWorstP[3,2]  1.3763981562066853e-02
    MARKER    'MARKER'                 'INTEND'
RHS
    RHS1      allocateEach[1]  1
    RHS1      allocateEach[2]  1
    RHS1      allocateEach[3]  1
    RHS1      allocateEach[4]  1
    RHS1      allocateEach[5]  1
    RHS1      allocateEach[6]  1
    RHS1      allocateEach[7]  1
    RHS1      allocateEach[8]  1
    RHS1      allocateEach[9]  1
    RHS1      allocateEach[10]  1
    RHS1      allocateEach[11]  1
    RHS1      allocateEach[12]  1
    RHS1      allocateEach[13]  1
    RHS1      allocateEach[14]  1
    RHS1      allocateAllCash  1
BOUNDS
 UP BND1      z         1
 MI BND1      cashProportion[1]
 UP BND1      cashProportion[1]  1
 MI BND1      cashProportion[2]
 UP BND1      cashProportion[2]  1
 MI BND1      cashProportion[3]
 UP BND1      cashProportion[3]  1
 BV BND1      x[1,1]  
 BV BND1      x[1,2]  
 BV BND1      x[1,3]  
 BV BND1      x[1,4]  
 BV BND1      x[1,5]  
 BV BND1      x[1,6]  
 BV BND1      x[1,7]  
 BV BND1      x[1,8]  
 BV BND1      x[1,9]  
 BV BND1      x[1,10] 
 BV BND1      x[1,11] 
 BV BND1      x[1,12] 
 BV BND1      x[1,13] 
 BV BND1      x[1,14] 
 BV BND1      x[2,1]  
 BV BND1      x[2,2]  
 BV BND1      x[2,3]  
 BV BND1      x[2,4]  
 BV BND1      x[2,5]  
 BV BND1      x[2,6]  
 BV BND1      x[2,7]  
 BV BND1      x[2,8]  
 BV BND1      x[2,9]  
 BV BND1      x[2,10] 
 BV BND1      x[2,11] 
 BV BND1      x[2,12] 
 BV BND1      x[2,13] 
 BV BND1      x[2,14] 
 BV BND1      x[3,1]  
 BV BND1      x[3,2]  
 BV BND1      x[3,3]  
 BV BND1      x[3,4]  
 BV BND1      x[3,5]  
 BV BND1      x[3,6]  
 BV BND1      x[3,7]  
 BV BND1      x[3,8]  
 BV BND1      x[3,9]  
 BV BND1      x[3,10] 
 BV BND1      x[3,11] 
 BV BND1      x[3,12] 
 BV BND1      x[3,13] 
 BV BND1      x[3,14] 
ENDATA
